\ Model ChooChoo
\ LP format - for model browsing. Use MPS format to capture full model detail.
Minimize
  22 Arc(1,2) + 6 Arc(1,5) + 22 Arc(2,1) + 2 Arc(2,3) + 3 Arc(3,4)
   + 5 Arc(3,6) + 9 Arc(4,1) + 13 Arc(4,3) + 25 Arc(5,4) + 3 Arc(5,6)
   + 9 Arc(6,2) + 17 Arc(6,5) + 0 y(2,1) + 0 y(2,3) + 0 y(3,4) + 0 y(3,6)
   + 0 y(4,1) + 0 y(4,3) + 0 y(5,4) + 0 y(5,6) + 0 b(1) + 0 b(2) + 0 b(3)
   + 0 b(4) + 0 b(5) + 0 b(6)
Subject To
 c1(1): Arc(3,4) + Arc(3,6) <= 1
 c1(2): Arc(2,1) + Arc(2,3) <= 1
 c1(3): Arc(4,1) + Arc(4,3) <= 1
 c1(4): Arc(2,1) + Arc(2,3) <= 1
 c1(5): Arc(4,1) + Arc(4,3) <= 1
 c1(6): Arc(3,4) + Arc(3,6) <= 1
 c1(1): Arc(3,4) + Arc(3,6) >= 1
 c1(2): Arc(2,1) + Arc(2,3) >= 1
 c1(3): Arc(4,1) + Arc(4,3) >= 1
 c1(4): Arc(2,1) + Arc(2,3) >= 1
 c1(5): Arc(4,1) + Arc(4,3) >= 1
 c1(6): Arc(3,4) + Arc(3,6) >= 1
 c2(1): - Arc(2,3) + Arc(3,4) + Arc(3,6) - Arc(4,3) = 0
 c2(2): - Arc(1,2) + Arc(2,1) + Arc(2,3) - Arc(6,2) = 0
 c2(3): - Arc(3,4) + Arc(4,1) + Arc(4,3) - Arc(5,4) = 0
 c2(4): - Arc(1,2) + Arc(2,1) + Arc(2,3) - Arc(6,2) = 0
 c2(5): - Arc(3,4) + Arc(4,1) + Arc(4,3) - Arc(5,4) = 0
 c2(6): - Arc(2,3) + Arc(3,4) + Arc(3,6) - Arc(4,3) = 0
 R18: a(1) <= 48
 R19: a(2) <= 48
 R20: a(3) <= 48
 R21: a(4) <= 48
 R22: a(5) <= 48
 R23: a(6) <= 48
 R24: 100 y(1,2) + a(2) <= 102
 R25: 100 y(1,5) + a(5) <= 101
 R26: 100 y(6,2) + a(2) <= 102
 R27: 100 y(6,5) + a(5) <= 101
 R28: 100 y(1,2) + a(2) >= 102
 R29: 100 y(1,5) + a(5) >= 101
 R30: 100 y(6,2) + a(2) >= 102
 R31: 100 y(6,5) + a(5) >= 101
 R32: 100 Arc(1,2) - 100 y(1,2) - a(1) + a(2) <= 124
 R33: 100 Arc(1,5) - 100 y(1,5) - a(1) + a(5) <= 107
 R34: 100 Arc(6,2) - 100 y(6,2) + a(2) - a(6) <= 111
 R35: 100 Arc(6,5) - 100 y(6,5) + a(5) - a(6) <= 118
Bounds
Binaries
 Arc(1,2) Arc(1,5) Arc(2,1) Arc(2,3) Arc(3,4) Arc(3,6) Arc(4,1) Arc(4,3)
 Arc(5,4) Arc(5,6) Arc(6,2) Arc(6,5) y(1,2) y(1,5) y(2,1) y(2,3) y(3,4)
 y(3,6) y(4,1) y(4,3) y(5,4) y(5,6) y(6,2) y(6,5)
End
